100
27634

865 966
395 493
777 875
912 1012
431 533
42 143
266 364
989 1089
524 626
498 598
415 513
941 1043
803 903
850 952
311 410
992 1094
489 591
367 469
598 698
914 1015
930 1028
224 326
517 618
143 243
289 391
144 243
774 874
98 197
634 733
819 918
257 355
932 1034
546 646
723 824
830 928
617 715
924 1023
151 250
318 416
102 200
748 850
76 177
921 1023
871 971
701 803
339 438
484 583
574 676
104 205
363 465
445 545
324 425
626 727
656 756
935 1033
210 310
990 1092
566 664
489 590
454 556
887 987
534 633
267 366
64 162
825 925
941 1039
562 661
938 1038
15 114
96 196
737 838
861 959
409 507
728 827
845 944
804 902
685 787
641 743
2 104
627 725
506 604
848 946
889 988
342 444
250 352
748 846
334 435
721 819
892 992
65 163
196 294
940 1042
582 680
228 327
245 344
823 921
991 1092
146 245
823 921
557 655
